benchmarks_vrp/CMT12/fixed_c_size/CMT12_2.vrp
NAME: CMT12_2
TYPE: CVRP
COMMENT: 819.56 - Cluster Nr.2
DIMENSION: 9
CAPACITY: 200
EDGE_WEIGHT_TYPE: EUC_2D
NODE_COORD_TYPE: TWOD_COORDS
NODE_COORD_SECTION: 
4 42 10
6 40 5
3 38 5
9 40 50
7 42 15
2 40 15
5 38 15
8 44 5
1 35 5
DEPOT_SECTION: 
9
-1
DEMAND_SECTION: 
6 30
8 20
2 40
9 0
4 40
1 20
5 10
3 30
7 10
EOF
