benchmarks_vrp/CMT12/fixed_c_size/CMT12_2.tour
NAME: CMT12_2 solution
TYPE: TOUR
TOUR_SECTION:
9 5 1 3 6 8 4 2 7 -1
-1
EOF